
  27    4
  10   10   10   10

   0   0   0   0   0   6 2 3 4 5 6 7 
  10   0   1   3   0   3 11 9 8 
   7   1   0   3   0   4 18 15 13 9 
   1   0   3   0   1   3 18 13 9 
   5   4   0   5   0   3 26 14 10 
   6   9   0   3   0   4 21 18 15 12 
   9   6   0   6   0   8 25 24 23 20 18 17 15 14 
   3   8   0   0   3   7 26 25 24 23 18 17 13 
   3   4   9   0   0   7 26 25 24 23 20 17 14 
   7   0   6   7   0   6 25 24 23 17 15 13 
   4   0   3  10   0   7 26 24 23 21 20 17 15 
   3   0   0   9   7   7 26 25 24 23 20 17 16 
   9   0   4   3   0   3 21 20 16 
   2   0   5   7   0   2 21 16 
   6   0   5   0   2   1 16 
   9   0   3   0   6   1 19 
   4   1   0   2   0   1 22 
   7   0   7   0   6   1 19 
   7   3   0   6   0   1 27
   7   0   6   4   0   1 27
  10   0   6   0   7   1 27
   6   6   0   2   0   1 27
   6  10   6   0   0   1 27
   9   0   6   0   5   1 27
  10   4   0   0   7   1 27
   6   4   0   0   6   1 27
   0   0   0   0   0   0 
